20
99
0 1 16 2
0 2 10 4
0 3 17 12
0 4 16 14
0 5 4 1
0 6 9 11
0 7 5 6
0 8 14 4
0 9 6 6
0 10 3 11
0 11 10 14
0 12 1 7
0 13 6 7
0 14 13 3
0 15 3 18
0 16 1 2
0 17 18 18
0 18 14 8
0 19 6 11
1 2 3 15
1 3 11 14
1 4 1 10
1 5 2 5
1 6 13 2
1 7 1 18
1 8 5 14
1 9 17 8
1 10 14 8
1 11 8 11
1 12 19 10
1 13 18 13
1 14 1 7
1 15 9 3
1 16 16 15
1 17 18 17
1 18 18 17
1 19 4 10
2 3 18 17
2 4 12 7
2 5 14 12
2 6 5 7
2 7 12 20
2 8 4 18
2 9 8 20
2 10 20 20
2 11 12 6
2 12 19 20
2 13 13 17
2 14 17 9
2 15 1 15
2 16 3 11
2 17 1 18
2 18 11 13
2 19 10 17
3 4 8 2
3 5 20 18
3 6 8 5
3 7 1 17
3 8 1 18
3 9 5 8
3 10 4 18
3 11 7 3
3 12 19 19
3 13 20 14
3 14 10 12
3 15 20 11
3 16 18 15
3 17 13 1
3 18 16 12
3 19 8 13
4 5 14 1
4 6 6 15
4 7 16 19
4 8 16 14
4 9 13 9
4 10 3 1
4 11 20 18
4 12 19 17
4 13 10 4
4 14 16 8
4 15 7 8
4 16 8 18
4 17 7 9
4 18 17 20
4 19 17 16
5 6 13 11
5 7 14 10
5 8 17 10
5 9 7 10
5 10 17 5
5 11 17 13
5 12 3 2
5 13 10 20
5 14 7 17
5 15 19 7
5 16 12 11
5 17 11 7
5 18 14 6
5 19 2 1
6 7 17 16
6 8 15 19
6 9 14 13
6 10 17 11
6 11 11 12
6 12 19 18
6 13 18 2
6 14 17 9
6 15 16 10
6 16 16 13
6 17 13 13
6 18 11 11
6 19 20 11
7 8 9 7
7 9 11 19
7 10 12 2
7 11 15 8
7 12 6 17
7 13 1 9
7 14 20 20
7 15 19 1
7 16 4 11
7 17 6 7
7 18 15 4
7 19 14 14
8 9 9 18
8 10 14 11
8 11 6 13
8 12 6 19
8 13 20 18
8 14 10 12
8 15 20 14
8 16 12 8
8 17 2 11
8 18 6 16
8 19 7 20
9 10 4 12
9 11 17 12
9 12 13 18
9 13 18 12
9 14 11 1
9 15 5 4
9 16 4 5
9 17 7 19
9 18 14 1
9 19 10 4
10 11 1 13
10 12 8 7
10 13 19 19
10 14 6 14
10 15 8 15
10 16 11 15
10 17 5 1
10 18 6 17
10 19 20 8
11 12 4 8
11 13 13 12
11 14 16 5
11 15 11 7
11 16 3 5
11 17 5 3
11 18 17 14
11 19 12 2
12 13 7 11
12 14 4 3
12 15 1 14
12 16 19 6
12 17 4 20
12 18 20 20
12 19 3 9
13 14 19 3
13 15 4 16
13 16 14 1
13 17 7 13
13 18 4 20
13 19 15 17
14 15 15 18
14 16 12 6
14 17 17 15
14 18 1 16
14 19 8 2
15 16 14 3
15 17 20 1
15 18 12 13
15 19 2 14
16 17 3 19
16 18 13 1
16 19 13 10
17 18 4 15
17 19 12 17
18 19 2 4
